* #variable= 147 #constraint= 49 #product= 294 sizeproduct= 588
min: +1 x1 x4 -1 x1 x19 +1 x1 x22 -1 x1 x127 +1 x2 x5 -1 x2 x20 +1 x2 x23 -1 x2 x128 +1 x3 x6 -1 x3 x21 +1 x3 x24 -1 x3 x129 -1 x4 x7 +1 x4 x25 +1 x4 x130 -1 x5 x8 +1 x5 x26 +1 x5 x131 -1 x6 x9 +1 x6 x27 +1 x6 x132 -1 x7 x10 -1 x7 x28 -1 x7 x133 -1 x8 x11 -1 x8 x29 -1 x8 x134 -1 x9 x12 -1 x9 x30 -1 x9 x135 -1 x10 x13 +1 x10 x31 +1 x10 x136 -1 x11 x14 +1 x11 x32 +1 x11 x137 -1 x12 x15 +1 x12 x33 +1 x12 x138 +1 x13 x16 -1 x13 x34 +1 x13 x139 +1 x14 x17 -1 x14 x35 +1 x14 x140 +1 x15 x18 -1 x15 x36 +1 x15 x141 +1 x16 x19 +1 x16 x37 -1 x16 x142 +1 x17 x20 +1 x17 x38 -1 x17 x143 +1 x18 x21 +1 x18 x39 -1 x18 x144 +1 x19 x40 +1 x19 x145 +1 x20 x41 +1 x20 x146 +1 x21 x42 +1 x21 x147 +1 x22 x25 +1 x22 x40 -1 x22 x43 +1 x23 x26 +1 x23 x41 -1 x23 x44 +1 x24 x27 +1 x24 x42 -1 x24 x45 -1 x25 x28 -1 x25 x46 -1 x26 x29 -1 x26 x47 -1 x27 x30 -1 x27 x48 +1 x28 x31 +1 x28 x49 +1 x29 x32 +1 x29 x50 +1 x30 x33 +1 x30 x51 +1 x31 x34 +1 x31 x52 +1 x32 x35 +1 x32 x53 +1 x33 x36 +1 x33 x54 +1 x34 x37 -1 x34 x55 +1 x35 x38 -1 x35 x56 +1 x36 x39 -1 x36 x57 -1 x37 x40 +1 x37 x58 -1 x38 x41 +1 x38 x59 -1 x39 x42 +1 x39 x60 -1 x40 x61 -1 x41 x62 -1 x42 x63 -1 x43 x46 -1 x43 x61 -1 x43 x64 -1 x44 x47 -1 x44 x62 -1 x44 x65 -1 x45 x48 -1 x45 x63 -1 x45 x66 -1 x46 x49 +1 x46 x67 -1 x47 x50 +1 x47 x68 -1 x48 x51 +1 x48 x69 -1 x49 x52 +1 x49 x70 -1 x50 x53 +1 x50 x71 -1 x51 x54 +1 x51 x72 -1 x52 x55 +1 x52 x73 -1 x53 x56 +1 x53 x74 -1 x54 x57 +1 x54 x75 -1 x55 x58 -1 x55 x76 -1 x56 x59 -1 x56 x77 -1 x57 x60 -1 x57 x78 +1 x58 x61 -1 x58 x79 +1 x59 x62 -1 x59 x80 +1 x60 x63 -1 x60 x81 +1 x61 x82 +1 x62 x83 +1 x63 x84 -1 x64 x67 +1 x64 x82 +1 x64 x85 -1 x65 x68 +1 x65 x83 +1 x65 x86 -1 x66 x69 +1 x66 x84 +1 x66 x87 -1 x67 x70 -1 x67 x88 -1 x68 x71 -1 x68 x89 -1 x69 x72 -1 x69 x90 +1 x70 x73 +1 x70 x91 +1 x71 x74 +1 x71 x92 +1 x72 x75 +1 x72 x93 +1 x73 x76 -1 x73 x94 +1 x74 x77 -1 x74 x95 +1 x75 x78 -1 x75 x96 -1 x76 x79 +1 x76 x97 -1 x77 x80 +1 x77 x98 -1 x78 x81 +1 x78 x99 +1 x79 x82 +1 x79 x100 +1 x80 x83 +1 x80 x101 +1 x81 x84 +1 x81 x102 -1 x82 x103 -1 x83 x104 -1 x84 x105 +1 x85 x88 -1 x85 x103 +1 x85 x106 +1 x86 x89 -1 x86 x104 +1 x86 x107 +1 x87 x90 -1 x87 x105 +1 x87 x108 -1 x88 x91 -1 x88 x109 -1 x89 x92 -1 x89 x110 -1 x90 x93 -1 x90 x111 +1 x91 x94 +1 x91 x112 +1 x92 x95 +1 x92 x113 +1 x93 x96 +1 x93 x114 -1 x94 x97 -1 x94 x115 -1 x95 x98 -1 x95 x116 -1 x96 x99 -1 x96 x117 -1 x97 x100 -1 x97 x118 -1 x98 x101 -1 x98 x119 -1 x99 x102 -1 x99 x120 -1 x100 x103 -1 x100 x121 -1 x101 x104 -1 x101 x122 -1 x102 x105 -1 x102 x123 -1 x103 x124 -1 x104 x125 -1 x105 x126 -1 x106 x109 -1 x106 x124 +1 x106 x127 -1 x107 x110 -1 x107 x125 +1 x107 x128 -1 x108 x111 -1 x108 x126 +1 x108 x129 -1 x109 x112 -1 x109 x130 -1 x110 x113 -1 x110 x131 -1 x111 x114 -1 x111 x132 +1 x112 x115 +1 x112 x133 +1 x113 x116 +1 x113 x134 +1 x114 x117 +1 x114 x135 +1 x115 x118 -1 x115 x136 +1 x116 x119 -1 x116 x137 +1 x117 x120 -1 x117 x138 -1 x118 x121 +1 x118 x139 -1 x119 x122 +1 x119 x140 -1 x120 x123 +1 x120 x141 +1 x121 x124 +1 x121 x142 +1 x122 x125 +1 x122 x143 +1 x123 x126 +1 x123 x144 -1 x124 x145 -1 x125 x146 -1 x126 x147 -1 x127 x130 +1 x127 x145 -1 x128 x131 +1 x128 x146 -1 x129 x132 +1 x129 x147 +1 x130 x133 +1 x131 x134 +1 x132 x135 -1 x133 x136 -1 x134 x137 -1 x135 x138 +1 x136 x139 +1 x137 x140 +1 x138 x141 +1 x139 x142 +1 x140 x143 +1 x141 x144 +1 x142 x145 +1 x143 x146 +1 x144 x147 ;
+1 x1 +1 x2 +1 x3 = 1 ;
+1 x4 +1 x5 +1 x6 = 1 ;
+1 x7 +1 x8 +1 x9 = 1 ;
+1 x10 +1 x11 +1 x12 = 1 ;
+1 x13 +1 x14 +1 x15 = 1 ;
+1 x16 +1 x17 +1 x18 = 1 ;
+1 x19 +1 x20 +1 x21 = 1 ;
+1 x22 +1 x23 +1 x24 = 1 ;
+1 x25 +1 x26 +1 x27 = 1 ;
+1 x28 +1 x29 +1 x30 = 1 ;
+1 x31 +1 x32 +1 x33 = 1 ;
+1 x34 +1 x35 +1 x36 = 1 ;
+1 x37 +1 x38 +1 x39 = 1 ;
+1 x40 +1 x41 +1 x42 = 1 ;
+1 x43 +1 x44 +1 x45 = 1 ;
+1 x46 +1 x47 +1 x48 = 1 ;
+1 x49 +1 x50 +1 x51 = 1 ;
+1 x52 +1 x53 +1 x54 = 1 ;
+1 x55 +1 x56 +1 x57 = 1 ;
+1 x58 +1 x59 +1 x60 = 1 ;
+1 x61 +1 x62 +1 x63 = 1 ;
+1 x64 +1 x65 +1 x66 = 1 ;
+1 x67 +1 x68 +1 x69 = 1 ;
+1 x70 +1 x71 +1 x72 = 1 ;
+1 x73 +1 x74 +1 x75 = 1 ;
+1 x76 +1 x77 +1 x78 = 1 ;
+1 x79 +1 x80 +1 x81 = 1 ;
+1 x82 +1 x83 +1 x84 = 1 ;
+1 x85 +1 x86 +1 x87 = 1 ;
+1 x88 +1 x89 +1 x90 = 1 ;
+1 x91 +1 x92 +1 x93 = 1 ;
+1 x94 +1 x95 +1 x96 = 1 ;
+1 x97 +1 x98 +1 x99 = 1 ;
+1 x100 +1 x101 +1 x102 = 1 ;
+1 x103 +1 x104 +1 x105 = 1 ;
+1 x106 +1 x107 +1 x108 = 1 ;
+1 x109 +1 x110 +1 x111 = 1 ;
+1 x112 +1 x113 +1 x114 = 1 ;
+1 x115 +1 x116 +1 x117 = 1 ;
+1 x118 +1 x119 +1 x120 = 1 ;
+1 x121 +1 x122 +1 x123 = 1 ;
+1 x124 +1 x125 +1 x126 = 1 ;
+1 x127 +1 x128 +1 x129 = 1 ;
+1 x130 +1 x131 +1 x132 = 1 ;
+1 x133 +1 x134 +1 x135 = 1 ;
+1 x136 +1 x137 +1 x138 = 1 ;
+1 x139 +1 x140 +1 x141 = 1 ;
+1 x142 +1 x143 +1 x144 = 1 ;
+1 x145 +1 x146 +1 x147 = 1 ;
